2	25
94	917	540	390	805	96	862	205	615	771	462	817	423	397	653	526	546	174	555	665	215	31	174	127	721	
193	697	906	627	121	154	39	767	682	42	505	438	30	113	354	550	305	322	416	944	190	563	817	339	991	
4165	4165	
